p edge 65 1040
e 1 2
e 1 3
e 1 4
e 1 5
e 1 6
e 1 7
e 1 8
e 1 9
e 1 10
e 1 11
e 1 12
e 1 13
e 1 14
e 1 15
e 1 16
e 1 17
e 1 18
e 1 19
e 1 20
e 1 21
e 1 22
e 1 23
e 1 24
e 1 25
e 1 26
e 1 27
e 1 28
e 1 29
e 1 30
e 1 31
e 1 32
e 1 33
e 2 3
e 2 4
e 2 5
e 2 6
e 2 7
e 2 8
e 2 9
e 2 10
e 2 11
e 2 12
e 2 13
e 2 14
e 2 15
e 2 16
e 2 17
e 2 34
e 2 35
e 2 36
e 2 37
e 2 38
e 2 39
e 2 40
e 2 41
e 2 42
e 2 43
e 2 44
e 2 45
e 2 46
e 2 47
e 2 48
e 2 49
e 3 10
e 3 12
e 3 13
e 3 15
e 3 16
e 3 20
e 3 21
e 3 22
e 3 24
e 3 25
e 3 27
e 3 30
e 3 32
e 3 33
e 3 35
e 3 37
e 3 38
e 3 39
e 3 40
e 3 43
e 3 46
e 3 48
e 3 49
e 3 51
e 3 53
e 3 54
e 3 57
e 3 60
e 3 61
e 3 63
e 4 6
e 4 7
e 4 11
e 4 14
e 4 16
e 4 19
e 4 20
e 4 23
e 4 24
e 4 26
e 4 27
e 4 29
e 4 30
e 4 31
e 4 35
e 4 36
e 4 38
e 4 40
e 4 42
e 4 44
e 4 47
e 4 48
e 4 49
e 4 54
e 4 56
e 4 58
e 4 59
e 4 60
e 4 61
e 4 63
e 5 7
e 5 8
e 5 13
e 5 14
e 5 17
e 5 18
e 5 21
e 5 23
e 5 25
e 5 27
e 5 28
e 5 29
e 5 30
e 5 32
e 5 34
e 5 38
e 5 40
e 5 41
e 5 44
e 5 45
e 5 46
e 5 47
e 5 49
e 5 50
e 5 53
e 5 54
e 5 57
e 5 58
e 5 60
e 5 65
e 6 9
e 6 10
e 6 12
e 6 16
e 6 20
e 6 21
e 6 23
e 6 24
e 6 25
e 6 26
e 6 29
e 6 31
e 6 33
e 6 37
e 6 40
e 6 41
e 6 42
e 6 44
e 6 45
e 6 46
e 6 47
e 6 48
e 6 50
e 6 52
e 6 53
e 6 57
e 6 58
e 6 62
e 6 64
e 7 9
e 7 10
e 7 15
e 7 16
e 7 19
e 7 22
e 7 23
e 7 25
e 7 26
e 7 28
e 7 30
e 7 32
e 7 34
e 7 36
e 7 39
e 7 40
e 7 45
e 7 46
e 7 47
e 7 49
e 7 54
e 7 55
e 7 56
e 7 57
e 7 59
e 7 62
e 7 63
e 7 64
e 8 9
e 8 11
e 8 14
e 8 15
e 8 17
e 8 19
e 8 21
e 8 23
e 8 24
e 8 25
e 8 27
e 8 29
e 8 33
e 8 35
e 8 39
e 8 41
e 8 42
e 8 43
e 8 44
e 8 46
e 8 49
e 8 50
e 8 51
e 8 55
e 8 56
e 8 60
e 8 62
e 8 63
e 8 64
e 9 10
e 9 11
e 9 14
e 9 18
e 9 21
e 9 25
e 9 26
e 9 27
e 9 28
e 9 30
e 9 31
e 9 34
e 9 36
e 9 37
e 9 42
e 9 43
e 9 46
e 9 48
e 9 49
e 9 51
e 9 52
e 9 57
e 9 61
e 9 62
e 9 63
e 9 64
e 9 65
e 10 13
e 10 17
e 10 18
e 10 19
e 10 20
e 10 24
e 10 27
e 10 28
e 10 32
e 10 33
e 10 37
e 10 39
e 10 40
e 10 44
e 10 45
e 10 47
e 10 48
e 10 49
e 10 51
e 10 52
e 10 56
e 10 59
e 10 60
e 10 62
e 10 64
e 10 65
e 11 13
e 11 15
e 11 17
e 11 19
e 11 21
e 11 22
e 11 25
e 11 26
e 11 27
e 11 30
e 11 33
e 11 37
e 11 38
e 11 41
e 11 42
e 11 43
e 11 45
e 11 47
e 11 48
e 11 52
e 11 54
e 11 55
e 11 56
e 11 58
e 11 59
e 11 61
e 11 65
e 12 14
e 12 15
e 12 16
e 12 17
e 12 18
e 12 20
e 12 22
e 12 24
e 12 25
e 12 30
e 12 31
e 12 32
e 12 34
e 12 38
e 12 39
e 12 42
e 12 43
e 12 44
e 12 45
e 12 47
e 12 50
e 12 55
e 12 58
e 12 61
e 12 62
e 12 63
e 12 64
e 12 65
e 13 16
e 13 17
e 13 19
e 13 26
e 13 28
e 13 29
e 13 30
e 13 31
e 13 32
e 13 33
e 13 34
e 13 35
e 13 39
e 13 42
e 13 43
e 13 44
e 13 46
e 13 48
e 13 52
e 13 53
e 13 55
e 13 57
e 13 58
e 13 59
e 13 60
e 13 65
e 14 15
e 14 17
e 14 20
e 14 24
e 14 28
e 14 29
e 14 31
e 14 32
e 14 33
e 14 34
e 14 35
e 14 36
e 14 38
e 14 41
e 14 48
e 14 49
e 14 51
e 14 54
e 14 57
e 14 58
e 14 59
e 14 61
e 14 62
e 14 64
e 14 65
e 15 16
e 15 21
e 15 22
e 15 23
e 15 27
e 15 28
e 15 29
e 15 33
e 15 35
e 15 36
e 15 37
e 15 38
e 15 39
e 15 40
e 15 45
e 15 52
e 15 53
e 15 55
e 15 58
e 15 59
e 15 62
e 15 63
e 15 64
e 15 65
e 16 17
e 16 22
e 16 23
e 16 26
e 16 28
e 16 31
e 16 33
e 16 36
e 16 41
e 16 43
e 16 44
e 16 46
e 16 49
e 16 50
e 16 52
e 16 53
e 16 54
e 16 56
e 16 60
e 16 61
e 16 62
e 16 63
e 16 65
e 17 18
e 17 22
e 17 26
e 17 29
e 17 31
e 17 32
e 17 37
e 17 41
e 17 45
e 17 47
e 17 48
e 17 49
e 17 50
e 17 51
e 17 53
e 17 55
e 17 56
e 17 59
e 17 60
e 17 61
e 17 63
e 17 64
e 18 19
e 18 21
e 18 22
e 18 23
e 18 24
e 18 26
e 18 27
e 18 28
e 18 31
e 18 32
e 18 34
e 18 35
e 18 36
e 18 37
e 18 38
e 18 39
e 18 40
e 18 41
e 18 42
e 18 47
e 18 50
e 18 52
e 18 60
e 18 61
e 18 63
e 18 65
e 19 20
e 19 21
e 19 22
e 19 23
e 19 24
e 19 28
e 19 31
e 19 33
e 19 34
e 19 35
e 19 37
e 19 39
e 19 43
e 19 44
e 19 46
e 19 47
e 19 49
e 19 50
e 19 54
e 19 55
e 19 58
e 19 59
e 19 61
e 19 64
e 20 23
e 20 25
e 20 27
e 20 28
e 20 29
e 20 30
e 20 32
e 20 33
e 20 34
e 20 36
e 20 37
e 20 39
e 20 41
e 20 42
e 20 43
e 20 45
e 20 49
e 20 50
e 20 51
e 20 53
e 20 56
e 20 58
e 20 59
e 20 61
e 21 22
e 21 23
e 21 25
e 21 31
e 21 32
e 21 33
e 21 36
e 21 38
e 21 40
e 21 43
e 21 44
e 21 47
e 21 48
e 21 49
e 21 50
e 21 51
e 21 52
e 21 53
e 21 57
e 21 58
e 21 59
e 21 63
e 22 24
e 22 25
e 22 26
e 22 28
e 22 29
e 22 34
e 22 35
e 22 36
e 22 37
e 22 43
e 22 45
e 22 47
e 22 48
e 22 50
e 22 51
e 22 54
e 22 56
e 22 57
e 22 58
e 22 60
e 22 62
e 23 24
e 23 29
e 23 30
e 23 33
e 23 34
e 23 36
e 23 39
e 23 41
e 23 45
e 23 46
e 23 47
e 23 48
e 23 51
e 23 52
e 23 53
e 23 55
e 23 60
e 23 61
e 23 63
e 23 65
e 24 25
e 24 26
e 24 27
e 24 31
e 24 35
e 24 38
e 24 39
e 24 41
e 24 44
e 24 45
e 24 46
e 24 48
e 24 51
e 24 54
e 24 55
e 24 57
e 24 59
e 24 60
e 24 62
e 24 65
e 25 26
e 25 30
e 25 32
e 25 36
e 25 37
e 25 39
e 25 41
e 25 42
e 25 44
e 25 49
e 25 53
e 25 54
e 25 55
e 25 56
e 25 57
e 25 58
e 25 60
e 25 64
e 25 65
e 26 28
e 26 29
e 26 30
e 26 35
e 26 38
e 26 39
e 26 40
e 26 41
e 26 42
e 26 49
e 26 50
e 26 51
e 26 52
e 26 53
e 26 55
e 26 57
e 26 59
e 26 61
e 26 62
e 27 28
e 27 29
e 27 30
e 27 31
e 27 37
e 27 38
e 27 40
e 27 42
e 27 43
e 27 45
e 27 46
e 27 50
e 27 53
e 27 54
e 27 56
e 27 59
e 27 60
e 27 62
e 27 63
e 27 65
e 28 33
e 28 35
e 28 36
e 28 38
e 28 42
e 28 44
e 28 45
e 28 46
e 28 50
e 28 51
e 28 53
e 28 56
e 28 57
e 28 58
e 28 61
e 28 64
e 28 65
e 29 30
e 29 31
e 29 34
e 29 35
e 29 37
e 29 39
e 29 40
e 29 43
e 29 47
e 29 51
e 29 52
e 29 53
e 29 56
e 29 57
e 29 58
e 29 60
e 29 62
e 29 64
e 30 32
e 30 34
e 30 35
e 30 40
e 30 43
e 30 44
e 30 45
e 30 48
e 30 50
e 30 51
e 30 52
e 30 54
e 30 55
e 30 61
e 30 63
e 30 64
e 30 65
e 31 32
e 31 34
e 31 36
e 31 37
e 31 38
e 31 43
e 31 44
e 31 46
e 31 52
e 31 53
e 31 54
e 31 55
e 31 56
e 31 57
e 31 59
e 31 63
e 31 64
e 32 33
e 32 35
e 32 36
e 32 40
e 32 41
e 32 42
e 32 46
e 32 47
e 32 51
e 32 52
e 32 54
e 32 55
e 32 56
e 32 58
e 32 59
e 32 62
e 32 63
e 33 34
e 33 38
e 33 40
e 33 41
e 33 42
e 33 48
e 33 50
e 33 52
e 33 54
e 33 55
e 33 56
e 33 57
e 33 60
e 33 61
e 33 62
e 33 64
e 34 36
e 34 37
e 34 38
e 34 39
e 34 42
e 34 43
e 34 45
e 34 48
e 34 49
e 34 50
e 34 52
e 34 54
e 34 55
e 34 57
e 34 60
e 34 62
e 35 36
e 35 37
e 35 39
e 35 40
e 35 41
e 35 42
e 35 44
e 35 46
e 35 48
e 35 50
e 35 51
e 35 52
e 35 54
e 35 58
e 35 63
e 35 64
e 36 37
e 36 40
e 36 41
e 36 42
e 36 43
e 36 44
e 36 48
e 36 51
e 36 53
e 36 55
e 36 56
e 36 59
e 36 60
e 36 65
e 37 40
e 37 41
e 37 45
e 37 46
e 37 49
e 37 52
e 37 53
e 37 54
e 37 55
e 37 58
e 37 60
e 37 61
e 37 64
e 38 39
e 38 40
e 38 42
e 38 44
e 38 45
e 38 47
e 38 49
e 38 51
e 38 52
e 38 53
e 38 54
e 38 55
e 38 56
e 38 57
e 38 61
e 39 41
e 39 42
e 39 43
e 39 47
e 39 49
e 39 52
e 39 53
e 39 56
e 39 57
e 39 59
e 39 63
e 39 64
e 39 65
e 40 41
e 40 43
e 40 44
e 40 47
e 40 50
e 40 55
e 40 57
e 40 59
e 40 60
e 40 61
e 40 62
e 40 64
e 41 43
e 41 45
e 41 46
e 41 50
e 41 52
e 41 54
e 41 56
e 41 57
e 41 59
e 41 61
e 41 65
e 42 46
e 42 47
e 42 48
e 42 50
e 42 53
e 42 55
e 42 56
e 42 58
e 42 60
e 42 62
e 42 63
e 43 44
e 43 46
e 43 47
e 43 50
e 43 51
e 43 56
e 43 57
e 43 59
e 43 61
e 43 62
e 43 65
e 44 45
e 44 49
e 44 50
e 44 51
e 44 52
e 44 55
e 44 56
e 44 58
e 44 60
e 44 64
e 44 65
e 45 46
e 45 48
e 45 50
e 45 51
e 45 52
e 45 55
e 45 56
e 45 57
e 45 58
e 45 59
e 45 63
e 46 47
e 46 51
e 46 53
e 46 54
e 46 55
e 46 57
e 46 58
e 46 61
e 46 62
e 46 63
e 47 48
e 47 51
e 47 53
e 47 54
e 47 56
e 47 58
e 47 61
e 47 62
e 47 64
e 47 65
e 48 50
e 48 51
e 48 53
e 48 54
e 48 57
e 48 59
e 48 60
e 48 63
e 48 64
e 48 65
e 49 50
e 49 51
e 49 52
e 49 53
e 49 54
e 49 58
e 49 59
e 49 60
e 49 61
e 49 62
e 49 63
e 50 53
e 50 54
e 50 59
e 50 62
e 50 63
e 50 64
e 51 52
e 51 53
e 51 55
e 51 56
e 51 61
e 51 62
e 52 54
e 52 56
e 52 58
e 52 62
e 52 63
e 52 65
e 53 54
e 53 55
e 53 59
e 53 64
e 53 65
e 54 56
e 54 62
e 54 64
e 54 65
e 55 59
e 55 60
e 55 61
e 55 62
e 55 64
e 56 57
e 56 60
e 56 63
e 56 64
e 57 58
e 57 59
e 57 60
e 57 61
e 57 63
e 57 64
e 58 59
e 58 60
e 58 61
e 58 62
e 58 63
e 58 65
e 59 62
e 59 63
e 59 65
e 60 61
e 60 62
e 60 63
e 60 65
e 61 63
e 61 64
e 61 65
e 62 65
e 63 64
e 64 65
